job_count = 26 ;
duration = [|8, 16, 2|9, 9, 2|28, 12, 9|6, 2, 6|7, 15, 3|26, 11, 5|21, 9, 7|18, 18, 9|16, 13, 5|12, 7, 5|13, 4, 5|28, 7, 6|28, 16, 6|8, 3, 7|5, 2, 9|28, 4, 1|3, 6, 3|3, 8, 7|20, 12, 8|12, 7, 9|11, 4, 8|19, 19, 6|28, 4, 3|29, 6, 4|8, 14, 4|16, 12, 3|] ;
machine_count = 3 ;
cost = [|18, 37, 57|18, 22, 49|15, 22, 42|19, 28, 56|18, 32, 43|14, 29, 52|14, 33, 57|18, 31, 55|12, 24, 51|15, 25, 34|17, 35, 52|19, 33, 45|13, 39, 58|19, 32, 51|13, 39, 40|16, 32, 46|11, 28, 45|11, 29, 38|15, 20, 50|14, 27, 33|19, 34, 47|18, 29, 59|15, 39, 59|19, 29, 33|16, 29, 59|16, 34, 50|] ;
deadline = [58, 58, 58, 58, 58, 58, 58, 58, 58, 58, 58, 58, 58, 58, 58, 58, 58, 58, 58, 58, 58, 58, 58, 58, 58, 58] ;
release = [0, 0, 0, 0, 0, 0, 0, 0, 0, 0, 0, 0, 0, 0, 0, 0, 0, 0, 0, 0, 0, 0, 0, 0, 0, 0] ;
resource = [|3, 3, 3|2, 2, 2|7, 7, 7|8, 8, 8|2, 2, 2|4, 4, 4|5, 5, 5|5, 5, 5|8, 8, 8|3, 3, 3|3, 3, 3|3, 3, 3|4, 4, 4|9, 9, 9|1, 1, 1|1, 1, 1|1, 1, 1|6, 6, 6|5, 5, 5|1, 1, 1|3, 3, 3|3, 3, 3|3, 3, 3|4, 4, 4|9, 9, 9|9, 9, 9|] ;
capacities = [10, 10, 10] ;
